language ESSENCE' 1.0
letting shiftRequirements = [[2, 2, 6, 2], [1, 2, 4, 5], [2, 2, 5, 3], [2, 2, 4, 4], [3, 1, 4, 4], [7, 1, 3, 1], [7, 1, 3, 1]]
letting numberOfWeeks = 12
letting s_min = 2
letting s_max = 4
